1 -1 2 0
1 1 3 0
1 4 -5 0
1 4 -6 0
1 4 7 0
1 -8 9 0
1 -8 -2 0
1 -8 -10 0
1 8 -6 0
1 -9 -11 0
1 -9 -2 0
1 9 10 0
1 9 -7 0
1 -3 -12 0
1 3 9 0
1 3 13 0
1 3 8 0
1 3 1 0
1 3 -7 0
1 -7 4 0
1 7 -14 0
1 7 15 0
1 7 -1 0
1 2 -16 0
1 -2 4 0
1 -2 -14 0
1 -2 -8 0
1 6 16 0
1 -6 -17 0
1 -6 8 0
1 -15 18 0
1 15 -3 0
1 15 -10 0
1 -15 -7 0
1 18 7 0
1 -13 19 0
1 -13 20 0
1 -13 21 0
1 12 13 0
1 12 22 0
1 10 -23 0
1 10 -11 0
1 -10 12 0
1 -10 9 0
1 -10 -24 0
1 11 -12 0
1 11 -9 0
1 -11 -25 0
1 -11 -26 0
1 -19 -12 0
1 -19 18 0
1 19 -14 0
1 -27 25 0
1 27 15 0
1 -26 28 0
1 26 14 0
1 -26 -22 0
1 -26 -21 0
1 -28 29 0
1 28 -10 0
1 24 10 0
1 23 30 0
1 23 29 0
1 -23 31 0
1 21 -23 0
1 21 28 0
1 -21 -12 0
1 -21 -13 0
1 31 -28 0
1 -31 12 0
1 -31 -26 0
1 22 -23 0
1 -22 32 0
1 22 -25 0
1 22 13 0
1 -22 -33 0
1 22 34 0
1 -22 35 0
1 -29 23 0
1 29 -28 0
1 29 24 0
1 -29 22 0
1 29 36 0
1 37 -38 0
1 37 -1 0
1 5 -39 0
1 40 -39 0
1 -40 38 0
1 40 -41 0
1 42 -39 0
1 42 43 0
1 42 -38 0
1 -42 -41 0
1 44 45 0
1 44 40 0
1 -38 -17 0
1 38 -46 0
1 -38 45 0
1 38 37 0
1 -39 47 0
1 -48 -39 0
1 48 -49 0
1 -48 -42 0
1 -48 -5 0
1 50 -51 0
1 -50 -15 0
1 52 44 0
1 -52 -18 0
1 52 53 0
1 -52 -2 0
1 20 -44 0
1 -17 54 0
1 17 -55 0
1 53 17 0
1 -53 42 0
1 53 -56 0
1 -53 50 0
1 41 -16 0
1 41 -17 0
1 41 52 0
1 -41 57 0
1 41 -14 0
1 -51 58 0
1 51 -52 0
1 51 59 0
1 51 -50 0
1 -60 -17 0
1 -60 -42 0
1 -60 20 0
1 14 54 0
1 14 19 0
1 14 26 0
1 -14 41 0
1 16 49 0
1 -16 -55 0
1 16 -61 0
1 -56 27 0
1 -56 -55 0
1 -56 -62 0
1 30 63 0
1 30 -61 0
1 -55 16 0
1 -55 17 0
1 -61 -32 0
1 -61 -14 0
1 61 20 0
1 61 -34 0
1 -54 30 0
1 -54 64 0
1 54 -57 0
1 54 -56 0
1 -54 65 0
1 -62 16 0
1 62 -57 0
1 62 14 0
1 62 66 0
1 25 67 0
1 25 57 0
1 25 -68 0
1 -25 35 0
1 35 27 0
1 -35 69 0
1 35 55 0
1 35 67 0
1 -35 -19 0
1 35 -22 0
1 32 -69 0
1 32 70 0
1 32 -34 0
1 -32 68 0
1 34 -71 0
1 34 -29 0
1 34 55 0
1 34 61 0
1 63 -72 0
1 -63 -25 0
1 63 -3 0
1 63 56 0
1 -63 73 0
1 63 34 0
1 -69 30 0
1 69 -25 0
1 -69 36 0
1 69 34 0
1 -67 -73 0
1 -67 -65 0
1 67 34 0
1 -68 -32 0
1 -74 -75 0
1 -74 21 0
1 -36 75 0
1 -36 -76 0
1 36 21 0
1 -72 69 0
1 -72 75 0
1 72 63 0
1 -72 -76 0
1 -72 33 0
1 -77 -75 0
1 77 76 0
1 -77 -33 0
1 -77 -78 0
1 70 75 0
1 -70 -79 0
1 70 -80 0
1 70 -32 0
1 -70 -10 0
1 -70 81 0
1 70 36 0
1 75 11 0
1 75 -82 0
1 -75 -79 0
1 -75 -72 0
1 -75 32 0
1 -75 -77 0
1 -75 -36 0
1 75 34 0
1 76 -83 0
1 -76 72 0
1 -76 74 0
1 76 84 0
1 -76 -85 0
1 -76 -36 0
1 76 34 0
1 71 -86 0
1 71 85 0
1 71 73 0
1 80 -87 0
1 -80 -88 0
1 -80 33 0
1 -89 -75 0
1 89 80 0
1 -89 -90 0
1 89 -33 0
1 89 -91 0
1 -79 -75 0
1 79 -90 0
1 -79 92 0
1 79 -70 0
1 92 87 0
1 -92 -85 0
1 91 89 0
1 -91 93 0
1 -90 31 0
1 90 94 0
1 -33 -95 0
1 33 -96 0
1 -33 22 0
1 33 97 0
1 87 29 0
1 -98 99 0
1 -100 5 0
1 -100 -101 0
1 102 -43 0
1 102 -103 0
1 -102 -101 0
1 102 -104 0
1 -102 -40 0
1 -102 -105 0
1 43 -106 0
1 43 -107 0
1 43 103 0
1 -43 105 0
1 101 108 0
1 101 -109 0
1 -101 -110 0
1 -107 -47 0
1 107 -110 0
1 99 106 0
1 -99 43 0
1 99 -111 0
1 99 102 0
1 99 98 0
1 106 -112 0
1 106 113 0
1 106 -102 0
1 -106 98 0
1 110 108 0
1 -110 48 0
1 -110 -50 0
1 110 111 0
1 -108 -39 0
1 108 107 0
1 108 114 0
1 108 110 0
1 108 105 0
1 47 107 0
1 115 -116 0
1 115 103 0
1 115 -117 0
1 115 -104 0
1 105 108 0
1 105 -102 0
1 103 118 0
1 -103 -58 0
1 -103 115 0
1 103 43 0
1 103 -47 0
1 103 102 0
1 104 119 0
1 -104 108 0
1 104 114 0
1 104 -120 0
1 -104 -47 0
1 -104 -102 0
1 114 -119 0
1 -114 -120 0
1 -114 -102 0
1 45 -39 0
1 45 -51 0
1 -45 -60 0
1 45 105 0
1 49 44 0
1 -49 51 0
1 -49 -112 0
1 49 -121 0
1 -49 -48 0
1 49 -45 0
1 49 105 0
1 -59 116 0
1 -59 -58 0
1 59 121 0
1 -59 122 0
1 -59 -46 0
1 -59 60 0
1 59 -123 0
1 59 105 0
1 -59 124 0
1 -58 30 0
1 -58 -51 0
1 58 -121 0
1 58 -117 0
1 58 -59 0
1 116 115 0
1 116 117 0
1 -116 -57 0
1 -116 -125 0
1 -117 -126 0
1 -117 -115 0
1 117 -127 0
1 117 128 0
1 -117 -57 0
1 117 47 0
1 -117 -129 0
1 -124 -58 0
1 124 127 0
1 124 120 0
1 -124 59 0
1 124 125 0
1 -121 118 0
1 121 -58 0
1 -121 120 0
1 121 -59 0
1 57 -116 0
1 -57 130 0
1 -57 -51 0
1 57 25 0
1 -126 -117 0
1 126 60 0
1 126 41 0
1 -128 131 0
1 -128 122 0
1 -128 -132 0
1 -129 -130 0
1 129 133 0
1 130 -58 0
1 -130 44 0
1 130 134 0
1 -130 65 0
1 130 -129 0
1 -46 -130 0
1 46 -135 0
1 46 -78 0
1 136 126 0
1 -136 137 0
1 -136 -127 0
1 136 128 0
1 -136 -57 0
1 -136 122 0
1 -136 -125 0
1 122 -126 0
1 122 58 0
1 122 137 0
1 122 -127 0
1 122 -128 0
1 -122 57 0
1 122 48 0
1 -122 129 0
1 -134 -46 0
1 134 62 0
1 65 -138 0
1 -65 -55 0
1 65 67 0
1 65 -46 0
1 -65 -132 0
1 -65 -62 0
1 65 -68 0
1 -135 -130 0
1 -135 -64 0
1 -135 139 0
1 135 78 0
1 -135 140 0
1 -78 -130 0
1 78 141 0
1 -133 142 0
1 -133 143 0
1 133 135 0
1 -133 -73 0
1 132 83 0
1 -132 85 0
1 -132 -41 0
1 132 65 0
1 -138 144 0
1 -138 -145 0
1 -138 -146 0
1 -138 -147 0
1 -138 65 0
1 -145 -142 0
1 -145 137 0
1 -145 -135 0
1 145 -78 0
1 88 69 0
1 88 137 0
1 -88 63 0
1 -73 -64 0
1 73 132 0
1 -73 147 0
1 73 66 0
1 73 -140 0
1 83 79 0
1 -83 -148 0
1 -83 -133 0
1 83 -149 0
1 83 -66 0
1 83 -140 0
1 83 -150 0
1 -85 151 0
1 -85 -71 0
1 85 133 0
1 85 141 0
1 85 92 0
1 85 -132 0
1 -141 82 0
1 141 152 0
1 -141 -96 0
1 -141 73 0
1 141 140 0
1 -140 -153 0
1 -140 88 0
1 -140 141 0
1 140 -154 0
1 -140 -85 0
1 -140 73 0
1 -140 78 0
1 -140 155 0
1 64 156 0
1 -64 -157 0
1 64 -66 0
1 64 -54 0
1 64 -135 0
1 -64 158 0
1 64 85 0
1 66 156 0
1 -66 142 0
1 66 -159 0
1 66 -62 0
1 82 -71 0
1 -82 -70 0
1 82 -140 0
1 154 75 0
1 154 141 0
1 -154 149 0
1 -154 140 0
1 -153 86 0
1 -153 -141 0
1 -153 160 0
1 153 -81 0
1 96 86 0
1 96 149 0
1 96 159 0
1 -96 160 0
1 -160 -96 0
1 160 63 0
1 -160 161 0
1 -151 -69 0
1 -151 162 0
1 -151 163 0
1 151 164 0
1 151 96 0
1 -151 -160 0
1 151 85 0
1 151 165 0
1 149 156 0
1 -149 -153 0
1 149 82 0
1 -149 166 0
1 -149 -154 0
1 -149 -150 0
1 -150 -162 0
1 -150 166 0
1 150 167 0
1 95 156 0
1 -95 -86 0
1 -95 -164 0
1 -95 -84 0
1 164 -95 0
1 -164 -87 0
1 164 90 0
1 164 84 0
1 164 -91 0
1 165 -168 0
1 -165 84 0
1 163 -169 0
1 -163 97 0
1 163 -93 0
1 -81 153 0
1 -81 170 0
1 81 163 0
1 81 -165 0
1 168 -95 0
1 -168 171 0
1 -168 -96 0
1 168 -172 0
1 84 -153 0
1 84 86 0
1 -84 -170 0
1 -84 -96 0
1 -84 -173 0
1 -84 165 0
1 -86 95 0
1 -86 174 0
1 86 -164 0
1 86 96 0
1 -86 161 0
1 175 169 0
1 -175 176 0
1 -175 97 0
1 176 94 0
1 177 168 0
1 -178 93 0
1 -178 169 0
1 -94 93 0
1 -94 179 0
1 94 -90 0
1 94 -180 0
1 -94 163 0
1 -97 179 0
1 97 -33 0
1 97 165 0
1 -169 181 0
1 169 -170 0
1 169 -182 0
1 -169 178 0
1 -169 -183 0
1 169 -97 0
1 169 -172 0
1 -184 185 0
1 184 186 0
1 184 187 0
1 -184 188 0
1 184 98 0
1 -187 -189 0
1 187 -190 0
1 187 188 0
1 191 186 0
1 -191 -192 0
1 193 -43 0
1 193 194 0
1 -193 -195 0
1 189 -196 0
1 189 197 0
1 -189 198 0
1 189 -188 0
1 188 187 0
1 188 197 0
1 188 -199 0
1 188 184 0
1 186 -197 0
1 -190 -187 0
1 190 200 0
1 -111 -201 0
1 -202 -108 0
1 -202 -189 0
1 -202 -192 0
1 -202 -188 0
1 -202 203 0
1 -198 204 0
1 198 -189 0
1 -198 -201 0
1 198 205 0
1 198 188 0
1 198 -203 0
1 -113 198 0
1 201 -119 0
1 -201 112 0
1 -201 193 0
1 201 -206 0
1 195 -119 0
1 195 -193 0
1 -195 206 0
1 -195 -191 0
1 192 113 0
1 192 111 0
1 -192 -191 0
1 203 -113 0
1 203 -197 0
1 203 191 0
1 -203 -207 0
1 109 -208 0
1 109 -205 0
1 109 45 0
1 112 -109 0
1 -112 -195 0
1 -123 -209 0
1 -123 119 0
1 -123 -201 0
1 -123 59 0
1 -123 210 0
1 -119 -209 0
1 119 211 0
1 119 -114 0
1 -119 -205 0
1 -119 123 0
1 -119 212 0
1 119 -195 0
1 -205 213 0
1 205 131 0
1 205 -214 0
1 204 215 0
1 204 216 0
1 -208 -112 0
1 208 113 0
1 208 -213 0
1 -208 206 0
1 208 -123 0
1 209 217 0
1 209 -218 0
1 209 -123 0
1 209 198 0
1 209 -214 0
1 120 -114 0
1 -120 -205 0
1 120 124 0
1 118 126 0
1 118 103 0
1 118 105 0
1 131 -219 0
1 -131 211 0
1 131 205 0
1 131 -210 0
1 -131 220 0
1 216 217 0
1 -216 -221 0
1 -216 -222 0
1 -216 -121 0
1 216 -131 0
1 216 212 0
1 216 129 0
1 -210 118 0
1 210 223 0
1 -211 -107 0
1 -211 223 0
1 211 -139 0
1 -212 -123 0
1 212 -224 0
1 -212 -214 0
1 -219 -225 0
1 127 121 0
1 -127 -122 0
1 -127 -124 0
1 125 -116 0
1 -125 -136 0
1 -125 -221 0
1 -125 117 0
1 125 -210 0
1 -125 220 0
1 -125 214 0
1 -139 226 0
1 139 -221 0
1 139 222 0
1 -139 -225 0
1 139 -220 0
1 227 -222 0
1 227 228 0
1 -227 229 0
1 -220 148 0
1 220 -222 0
1 220 127 0
1 -220 -131 0
1 220 -105 0
1 -222 148 0
1 -222 -146 0
1 229 -230 0
1 229 221 0
1 229 -104 0
1 221 -114 0
1 221 231 0
1 221 -127 0
1 221 232 0
1 221 -233 0
1 -221 125 0
1 -221 216 0
1 -137 138 0
1 -137 -88 0
1 137 -147 0
1 -137 -220 0
1 -137 234 0
1 -147 -226 0
1 147 -138 0
1 -147 -137 0
1 -147 -222 0
1 -147 -235 0
1 -147 -122 0
1 -147 -46 0
1 147 -145 0
1 148 235 0
1 148 220 0
1 -146 148 0
1 -146 235 0
1 -146 236 0
1 -146 145 0
1 -226 237 0
1 -226 238 0
1 226 148 0
1 -226 137 0
1 226 -239 0
1 226 158 0
1 235 237 0
1 235 -142 0
1 235 -148 0
1 235 -158 0
1 235 -146 0
1 -234 228 0
1 -234 -239 0
1 234 240 0
1 -234 146 0
1 -234 -124 0
1 -228 241 0
1 228 230 0
1 228 -121 0
1 -228 242 0
1 -228 146 0
1 228 147 0
1 142 243 0
1 142 -230 0
1 158 -243 0
1 -158 138 0
1 158 -154 0
1 -157 -236 0
1 -157 66 0
1 159 157 0
1 -159 66 0
1 244 142 0
1 -244 -148 0
1 -245 244 0
1 -245 -166 0
1 245 -158 0
1 -245 -46 0
1 -245 -246 0
1 243 -237 0
1 243 -148 0
1 -243 247 0
1 -243 248 0
1 243 -159 0
1 -236 -157 0
1 236 148 0
1 236 -249 0
1 -156 -237 0
1 156 64 0
1 -167 -144 0
1 -167 -141 0
1 167 -149 0
1 -167 239 0
1 167 -245 0
1 167 250 0
1 -246 251 0
1 246 -252 0
1 -166 -144 0
1 -166 -163 0
1 166 -250 0
1 -166 -253 0
1 -166 -155 0
1 -143 -166 0
1 143 -254 0
1 143 161 0
1 -250 156 0
1 -250 -255 0
1 250 -256 0
1 -250 143 0
1 250 -167 0
1 -250 -132 0
1 250 246 0
1 -144 -167 0
1 -144 159 0
1 144 257 0
1 144 -258 0
1 -259 260 0
1 259 247 0
1 259 167 0
1 161 -143 0
1 -161 -84 0
1 -161 -175 0
1 -161 -155 0
1 -161 -150 0
1 162 -160 0
1 162 250 0
1 254 -261 0
1 254 -86 0
1 -254 152 0
1 254 -262 0
1 -254 -177 0
1 -254 258 0
1 254 155 0
1 256 143 0
1 256 253 0
1 -152 -170 0
1 -152 141 0
1 -152 -263 0
1 152 155 0
1 155 181 0
1 -155 166 0
1 155 172 0
1 155 254 0
1 -155 161 0
1 -155 -264 0
1 -252 265 0
1 -252 166 0
1 -252 -266 0
1 -252 161 0
1 253 267 0
1 253 257 0
1 253 246 0
1 -172 -86 0
1 -172 -84 0
1 -170 268 0
1 170 261 0
1 -170 168 0
1 -170 81 0
1 -170 97 0
1 -269 261 0
1 -269 181 0
1 269 169 0
1 269 -270 0
1 -269 -262 0
1 -181 -271 0
1 -181 272 0
1 -181 155 0
1 262 -273 0
1 262 -181 0
1 -262 -170 0
1 -261 274 0
1 -261 -181 0
1 -261 256 0
1 261 -275 0
1 261 183 0
1 -261 -254 0
1 272 -276 0
1 -272 -277 0
1 272 170 0
1 272 -149 0
1 -272 278 0
1 -272 269 0
1 268 279 0
1 -268 266 0
1 268 150 0
1 -183 -261 0
1 -183 -179 0
1 183 -171 0
1 183 93 0
1 179 -267 0
1 -179 -280 0
1 275 174 0
1 273 277 0
1 -273 -261 0
1 -273 -182 0
1 -273 -262 0
1 273 -280 0
1 -273 -281 0
1 -280 -282 0
1 -280 269 0
1 -280 -81 0
1 280 -283 0
1 -171 168 0
1 -171 269 0
1 171 280 0
1 173 -174 0
1 -173 275 0
1 -173 -269 0
1 173 283 0
1 174 179 0
1 -174 -284 0
1 -174 -269 0
1 285 279 0
1 -285 280 0
1 285 -286 0
1 287 -182 0
1 287 285 0
1 288 180 0
1 288 -286 0
1 289 182 0
1 -289 288 0
1 -289 286 0
1 -286 -180 0
1 286 285 0
1 -286 -290 0
1 -286 -289 0
1 180 273 0
1 -180 -291 0
1 -180 94 0
1 180 292 0
1 -180 289 0
1 -281 273 0
1 281 293 0
1 -281 -283 0
1 182 291 0
1 182 293 0
1 182 -288 0
1 182 283 0
1 182 -289 0
1 -182 -287 0
1 -185 -294 0
1 185 295 0
1 -294 -185 0
1 294 296 0
1 294 -297 0
1 -294 298 0
1 294 -295 0
1 299 -296 0
1 299 -295 0
1 -194 297 0
1 -194 298 0
1 -296 185 0
1 296 300 0
1 -296 -301 0
1 296 -299 0
1 -298 302 0
1 -295 -297 0
1 -295 -303 0
1 304 301 0
1 -304 -298 0
1 -304 -305 0
1 304 190 0
1 306 -307 0
1 -306 308 0
1 -306 -186 0
1 306 -298 0
1 306 -190 0
1 -306 309 0
1 -306 -310 0
1 302 307 0
1 302 -305 0
1 311 -312 0
1 -311 313 0
1 311 -196 0
1 -311 -302 0
1 -311 305 0
1 305 314 0
1 305 -197 0
1 -305 299 0
1 307 -301 0
1 -309 -194 0
1 309 306 0
1 -309 -304 0
1 -197 311 0
1 -197 315 0
1 -197 -316 0
1 196 -112 0
1 196 189 0
1 196 -192 0
1 -196 -305 0
1 -196 -316 0
1 196 197 0
1 314 311 0
1 -314 316 0
1 313 -119 0
1 -313 311 0
1 -313 -317 0
1 -313 -318 0
1 313 -192 0
1 -313 310 0
1 313 -199 0
1 -315 -196 0
1 -315 -319 0
1 310 197 0
1 -310 306 0
1 308 312 0
1 -308 -320 0
1 -308 314 0
1 308 197 0
1 316 -321 0
1 316 -197 0
1 -206 317 0
1 -206 200 0
1 322 118 0
1 -322 312 0
1 322 318 0
1 -322 310 0
1 322 -203 0
1 218 209 0
1 218 -323 0
1 -218 315 0
1 218 318 0
1 218 -324 0
1 -218 -325 0
1 218 199 0
1 -217 315 0
1 -217 -200 0
1 217 207 0
1 318 313 0
1 -318 189 0
1 -318 -213 0
1 318 -326 0
1 318 -206 0
1 -318 314 0
1 -318 214 0
1 199 -322 0
1 199 218 0
1 -199 -314 0
1 -199 -188 0
1 199 -214 0
1 317 327 0
1 317 218 0
1 -317 206 0
1 -317 314 0
1 -317 328 0
1 -200 -313 0
1 200 -317 0
1 200 -329 0
1 -200 319 0
1 -213 -208 0
1 -214 323 0
1 214 -204 0
1 -214 -219 0
1 214 318 0
1 214 -212 0
1 214 -199 0
1 -225 -323 0
1 225 -330 0
1 225 207 0
1 225 -199 0
1 -224 219 0
1 -224 318 0
1 -224 -227 0
1 -224 -199 0
1 224 -207 0
1 -324 -225 0
1 324 201 0
1 -324 -232 0
1 324 -224 0
1 323 -331 0
1 -323 -332 0
1 323 -333 0
1 -323 233 0
1 -323 -224 0
1 323 -195 0
1 334 217 0
1 -334 -335 0
1 -334 327 0
1 -334 -192 0
1 334 218 0
1 207 -217 0
1 207 336 0
1 -207 -225 0
1 207 -213 0
1 207 218 0
1 207 328 0
1 207 -224 0
1 -207 203 0
1 -207 -214 0
1 -223 323 0
1 223 -330 0
1 -223 -219 0
1 -223 211 0
1 -223 -221 0
1 -223 -337 0
1 223 229 0
1 -233 338 0
1 -233 212 0
1 -233 147 0
1 332 215 0
1 -332 339 0
1 -332 -340 0
1 -332 232 0
1 232 -330 0
1 232 324 0
1 232 -146 0
1 337 -341 0
1 337 -332 0
1 337 -240 0
1 337 -224 0
1 215 -204 0
1 -215 230 0
1 -215 -332 0
1 -215 342 0
1 -215 -343 0
1 215 -232 0
1 -338 330 0
1 -338 223 0
1 338 344 0
1 330 -345 0
1 330 -223 0
1 330 225 0
1 330 232 0
1 -330 233 0
1 -330 224 0
1 -230 142 0
1 -230 -340 0
1 230 222 0
1 -230 343 0
1 230 229 0
1 343 -222 0
1 343 -333 0
1 -343 -346 0
1 -241 -345 0
1 -241 -228 0
1 -241 -346 0
1 241 347 0
1 -241 -234 0
1 240 339 0
1 240 -348 0
1 -240 -159 0
1 -240 -234 0
1 -349 230 0
1 -349 -332 0
1 -349 -340 0
1 349 -350 0
1 -340 -230 0
1 -340 -248 0
1 -340 -240 0
1 346 351 0
1 -346 332 0
1 346 -240 0
1 346 -343 0
1 346 212 0
1 346 352 0
1 -339 351 0
1 339 -219 0
1 -339 350 0
1 -339 342 0
1 -237 226 0
1 -237 -231 0
1 237 239 0
1 -237 236 0
1 237 349 0
1 239 231 0
1 239 -167 0
1 239 -235 0
1 251 348 0
1 -251 248 0
1 248 -340 0
1 248 -166 0
1 -248 242 0
1 248 -353 0
1 -248 236 0
1 -248 349 0
1 -347 -251 0
1 -347 348 0
1 347 248 0
1 347 258 0
1 -347 -220 0
1 -348 -237 0
1 348 -354 0
1 -348 260 0
1 348 222 0
1 348 248 0
1 348 -355 0
1 348 347 0
1 356 237 0
1 356 -354 0
1 356 231 0
1 -356 240 0
1 231 -241 0
1 -231 -354 0
1 231 357 0
1 231 -358 0
1 -231 350 0
1 -247 -244 0
1 -247 350 0
1 -247 347 0
1 258 -359 0
1 258 254 0
1 -258 347 0
1 -260 -238 0
1 -260 -144 0
1 -260 256 0
1 -260 -258 0
1 238 360 0
1 -238 260 0
1 -238 -247 0
1 -359 -251 0
1 -359 -238 0
1 359 -260 0
1 -359 248 0
1 -359 361 0
1 -359 270 0
1 -362 260 0
1 -362 247 0
1 -362 -363 0
1 -362 364 0
1 362 -234 0
1 242 -251 0
1 -242 -362 0
1 -242 -365 0
1 242 -366 0
1 257 -367 0
1 257 255 0
1 257 143 0
1 257 -252 0
1 257 359 0
1 257 -259 0
1 257 172 0
1 257 250 0
1 -257 355 0
1 255 -250 0
1 255 -144 0
1 255 -252 0
1 -255 -368 0
1 -255 259 0
1 270 -367 0
1 -270 -271 0
1 -270 -369 0
1 -270 -269 0
1 271 -367 0
1 271 369 0
1 -271 252 0
1 271 359 0
1 271 270 0
1 271 -253 0
1 370 244 0
1 -370 -371 0
1 -370 -372 0
1 -370 270 0
1 -370 -258 0
1 368 277 0
1 -367 -373 0
1 -367 -243 0
1 367 360 0
1 -367 271 0
1 367 255 0
1 367 -260 0
1 367 -363 0
1 249 255 0
1 -249 374 0
1 -249 -270 0
1 -249 -257 0
1 -266 -268 0
1 -266 -375 0
1 266 369 0
1 -266 376 0
1 266 -377 0
1 -266 253 0
1 267 268 0
1 267 369 0
1 267 377 0
1 267 -253 0
1 -267 155 0
1 -372 277 0
1 -372 375 0
1 -372 272 0
1 372 -275 0
1 372 -374 0
1 372 -376 0
1 -372 377 0
1 277 268 0
1 -277 378 0
1 -277 -265 0
1 -277 263 0
1 -277 372 0
1 -277 -376 0
1 -369 276 0
1 369 379 0
1 -369 -279 0
1 -369 372 0
1 -377 369 0
1 -377 -266 0
1 -377 -380 0
1 375 373 0
1 -375 266 0
1 -375 376 0
1 -375 -380 0
1 -376 -277 0
1 376 -271 0
1 -376 381 0
1 -376 371 0
1 -376 270 0
1 -376 -380 0
1 376 382 0
1 279 -276 0
1 279 -173 0
1 -279 -383 0
1 -276 -268 0
1 276 -373 0
1 276 265 0
1 276 264 0
1 384 288 0
1 -384 -263 0
1 384 -264 0
1 -384 -385 0
1 385 174 0
1 -385 -265 0
1 385 278 0
1 -385 386 0
1 -385 -264 0
1 -385 382 0
1 -263 276 0
1 -263 282 0
1 263 279 0
1 -264 387 0
1 -264 -282 0
1 264 -372 0
1 264 -388 0
1 -264 389 0
1 264 -155 0
1 -265 -390 0
1 265 384 0
1 -265 -380 0
1 -383 387 0
1 -282 274 0
1 -282 -182 0
1 282 -379 0
1 282 173 0
1 -282 -281 0
1 282 283 0
1 -283 391 0
1 -283 -171 0
1 283 -182 0
1 -283 -282 0
1 283 -280 0
1 -283 380 0
1 293 391 0
1 293 182 0
1 -293 -392 0
1 -389 -293 0
1 -386 393 0
1 386 -291 0
1 -386 293 0
1 -386 282 0
1 386 394 0
1 386 -395 0
1 -386 385 0
1 -274 -291 0
1 274 -394 0
1 -274 385 0
1 278 396 0
1 -278 293 0
1 -278 -385 0
1 -391 268 0
1 -391 -393 0
1 -391 -396 0
1 391 278 0
1 -391 394 0
1 391 -397 0
1 391 389 0
1 -290 392 0
1 -290 -388 0
1 -290 -286 0
1 -398 -284 0
1 -398 396 0
1 398 399 0
1 398 -386 0
1 398 395 0
1 -395 -274 0
1 -395 392 0
1 -395 -400 0
1 401 -398 0
1 -401 -171 0
1 -401 -402 0
1 -401 389 0
1 392 -293 0
1 -284 -174 0
1 -284 398 0
1 284 291 0
1 284 -293 0
1 284 -394 0
1 403 292 0
1 404 -292 0
1 -405 399 0
1 405 -406 0
1 402 -401 0
1 -402 -292 0
1 -402 -400 0
1 400 405 0
1 400 398 0
1 400 -402 0
1 400 404 0
1 -292 400 0
1 -292 180 0
1 292 -404 0
1 406 399 0
1 406 402 0
1 -406 -395 0
1 406 281 0
1 -399 -405 0
1 320 -307 0
1 -320 311 0
1 -320 308 0
1 -320 316 0
1 312 -322 0
1 312 309 0
1 -312 -303 0
1 -325 300 0
1 325 -407 0
1 325 308 0
1 325 218 0
1 -408 -407 0
1 -408 -409 0
1 408 410 0
1 408 411 0
1 -408 412 0
1 -300 413 0
1 300 -410 0
1 300 320 0
1 300 -319 0
1 410 408 0
1 410 -300 0
1 -410 -298 0
1 -410 -321 0
1 -410 -414 0
1 410 415 0
1 303 408 0
1 -303 312 0
1 -303 325 0
1 -303 -320 0
1 409 320 0
1 -321 -308 0
1 321 -410 0
1 319 -300 0
1 319 -407 0
1 -319 416 0
1 319 317 0
1 319 410 0
1 319 -412 0
1 -319 -214 0
1 -329 -225 0
1 -329 -410 0
1 -329 417 0
1 415 -416 0
1 415 329 0
1 -415 -417 0
1 415 224 0
1 416 -418 0
1 416 -335 0
1 -416 -327 0
1 416 -325 0
1 -416 -412 0
1 412 418 0
1 -412 -305 0
1 412 328 0
1 -412 319 0
1 -411 -321 0
1 -411 -309 0
1 -411 419 0
1 -327 420 0
1 327 200 0
1 328 420 0
1 328 327 0
1 -328 233 0
1 -328 -207 0
1 335 -416 0
1 -335 326 0
1 335 -421 0
1 -335 -417 0
1 422 -416 0
1 422 335 0
1 -422 412 0
1 -423 -424 0
1 -423 333 0
1 -423 417 0
1 423 328 0
1 423 -415 0
1 417 423 0
1 -417 -425 0
1 417 -426 0
1 -417 -310 0
1 -417 422 0
1 -420 427 0
1 420 -308 0
1 420 428 0
1 420 329 0
1 420 -421 0
1 -420 -415 0
1 -421 -427 0
1 -421 329 0
1 -421 426 0
1 -421 -429 0
1 -421 422 0
1 421 -415 0
1 336 323 0
1 336 330 0
1 -336 -418 0
1 336 -423 0
1 -336 -333 0
1 -333 -323 0
1 333 -334 0
1 -333 430 0
1 -333 207 0
1 345 -330 0
1 345 241 0
1 -345 -423 0
1 345 431 0
1 -345 326 0
1 -345 -432 0
1 433 -345 0
1 -433 423 0
1 -433 431 0
1 -433 -326 0
1 433 -240 0
1 433 -338 0
1 433 429 0
1 433 -434 0
1 -326 341 0
1 326 -335 0
1 326 -318 0
1 -326 -435 0
1 -326 -432 0
1 432 351 0
1 -432 341 0
1 -432 345 0
1 432 -336 0
1 -432 435 0
1 -432 -433 0
1 -432 422 0
1 -431 424 0
1 431 345 0
1 -431 -335 0
1 -431 436 0
1 431 -433 0
1 -431 -434 0
1 434 437 0
1 434 336 0
1 434 -426 0
1 -434 -422 0
1 -434 200 0
1 -434 438 0
1 -341 338 0
1 -342 -215 0
1 342 -339 0
1 342 426 0
1 -351 -439 0
1 -351 440 0
1 -351 339 0
1 351 -344 0
1 -351 441 0
1 353 351 0
1 353 -339 0
1 -353 -248 0
1 -353 -442 0
1 353 443 0
1 444 357 0
1 -444 433 0
1 -331 445 0
1 331 -341 0
1 331 -357 0
1 -331 -353 0
1 -331 -342 0
1 -442 -345 0
1 446 351 0
1 -446 -447 0
1 446 435 0
1 -446 -353 0
1 446 433 0
1 -446 448 0
1 449 450 0
1 -449 -444 0
1 449 -346 0
1 449 349 0
1 350 -340 0
1 350 435 0
1 -350 349 0
1 451 -331 0
1 -451 -452 0
1 451 231 0
1 -451 -444 0
1 -451 -453 0
1 451 258 0
1 357 -331 0
1 357 440 0
1 357 -454 0
1 357 444 0
1 357 441 0
1 357 -453 0
1 441 -450 0
1 -441 -365 0
1 -441 354 0
1 -441 -357 0
1 441 350 0
1 441 449 0
1 450 -351 0
1 -450 215 0
1 450 -350 0
1 450 353 0
1 344 353 0
1 -344 455 0
1 -344 -456 0
1 -440 -351 0
1 440 -455 0
1 440 -456 0
1 -355 457 0
1 355 -354 0
1 355 452 0
1 355 231 0
1 -354 362 0
1 -354 -242 0
1 354 -453 0
1 364 -450 0
1 364 365 0
1 -364 452 0
1 364 -242 0
1 -364 -270 0
1 -364 -458 0
1 365 -459 0
1 -365 -358 0
1 365 -441 0
1 -365 -460 0
1 -453 -378 0
1 -453 349 0
1 453 363 0
1 453 -355 0
1 -452 -461 0
1 452 374 0
1 -452 -453 0
1 352 462 0
1 352 463 0
1 352 -464 0
1 352 -354 0
1 352 465 0
1 457 -463 0
1 -457 -464 0
1 -457 -365 0
1 -457 339 0
1 -457 357 0
1 -457 352 0
1 457 451 0
1 363 -360 0
1 363 -452 0
1 -363 455 0
1 -360 -238 0
1 -360 -367 0
1 360 -363 0
1 -360 453 0
1 -374 -466 0
1 374 367 0
1 374 -452 0
1 -374 467 0
1 374 -372 0
1 -374 -468 0
1 374 453 0
1 -374 -460 0
1 -374 -458 0
1 378 -466 0
1 378 277 0
1 -378 469 0
1 -378 -374 0
1 -378 460 0
1 -458 -470 0
1 -458 378 0
1 -458 -364 0
1 458 471 0
1 467 -373 0
1 467 -360 0
1 467 472 0
1 -467 381 0
1 467 -374 0
1 -460 -473 0
1 460 378 0
1 460 360 0
1 -460 -474 0
1 460 -363 0
1 358 475 0
1 -358 476 0
1 358 -461 0
1 358 363 0
1 371 -373 0
1 371 -467 0
1 -371 -461 0
1 -373 462 0
1 -373 -469 0
1 373 -366 0
1 373 -376 0
1 373 458 0
1 -381 -466 0
1 -381 375 0
1 -382 -473 0
1 382 -375 0
1 382 -376 0
1 469 373 0
1 -469 238 0
1 469 -477 0
1 -469 -478 0
1 469 390 0
1 469 -381 0
1 -469 361 0
1 469 -374 0
1 -469 479 0
1 469 -380 0
1 -361 478 0
1 361 -381 0
1 -361 480 0
1 -466 362 0
1 -466 -378 0
1 466 471 0
1 366 -481 0
1 366 371 0
1 -366 -374 0
1 366 479 0
1 366 471 0
1 379 482 0
1 379 -375 0
1 379 -369 0
1 379 483 0
1 -380 484 0
1 380 265 0
1 380 485 0
1 380 377 0
1 380 283 0
1 -390 -484 0
1 390 -265 0
1 -390 -486 0
1 -390 383 0
1 486 469 0
1 -486 487 0
1 -486 -488 0
1 486 -489 0
1 -482 -387 0
1 482 490 0
1 -483 -396 0
1 483 486 0
1 483 380 0
1 -484 -491 0
1 -484 -478 0
1 484 492 0
1 -484 -382 0
1 485 -493 0
1 -485 491 0
1 485 -478 0
1 485 -390 0
1 485 -486 0
1 387 -482 0
1 -387 478 0
1 387 488 0
1 387 265 0
1 -387 263 0
1 387 278 0
1 387 -483 0
1 -387 -494 0
1 388 482 0
1 -388 -494 0
1 388 -383 0
1 396 -391 0
1 -396 -495 0
1 396 488 0
1 396 496 0
1 -396 -497 0
1 396 -487 0
1 397 -391 0
1 -397 -396 0
1 397 -497 0
1 397 395 0
1 488 -498 0
1 488 -397 0
1 488 486 0
1 494 499 0
1 494 394 0
1 495 493 0
1 -495 390 0
1 495 397 0
1 495 -388 0
1 -495 487 0
1 -487 -500 0
1 487 -501 0
1 487 490 0
1 -487 397 0
1 487 -376 0
1 393 274 0
1 393 -284 0
1 -393 -488 0
1 -393 502 0
1 394 391 0
1 394 -284 0
1 394 278 0
1 498 -500 0
1 498 284 0
1 498 488 0
1 498 499 0
1 -499 -498 0
1 -499 488 0
1 -499 -501 0
1 499 502 0
1 497 498 0
1 -497 -499 0
1 -497 394 0
1 502 -498 0
1 496 265 0
1 -496 499 0
1 496 -503 0
1 -503 -498 0
1 -503 -496 0
1 503 394 0
1 -418 -413 0
1 -418 -407 0
1 -418 -416 0
1 418 420 0
1 -418 504 0
1 -418 411 0
1 418 -412 0
1 430 -407 0
1 430 -416 0
1 -430 -418 0
1 430 -333 0
1 -427 413 0
1 -427 -345 0
1 427 -420 0
1 -427 504 0
1 427 -414 0
1 -429 505 0
1 -429 -506 0
1 429 -507 0
1 -429 414 0
1 -429 421 0
1 -413 -300 0
1 -413 -424 0
1 -413 508 0
1 413 427 0
1 414 -413 0
1 -414 -427 0
1 414 418 0
1 505 -429 0
1 504 -427 0
1 -504 -509 0
1 504 429 0
1 -504 -430 0
1 424 -507 0
1 -424 -423 0
1 -424 -421 0
1 424 434 0
1 -426 507 0
1 -426 -419 0
1 -439 -507 0
1 -439 510 0
1 439 443 0
1 439 511 0
1 -443 -507 0
1 443 -510 0
1 443 434 0
1 507 -512 0
1 -507 -454 0
1 507 -435 0
1 507 429 0
1 -513 427 0
1 513 412 0
1 -513 -514 0
1 513 -515 0
1 -513 -448 0
1 506 426 0
1 -506 429 0
1 -419 -506 0
1 419 -427 0
1 419 -429 0
1 437 -449 0
1 -437 442 0
1 -435 -507 0
1 -435 432 0
1 -448 -454 0
1 448 436 0
1 448 513 0
1 448 451 0
1 448 -446 0
1 -454 507 0
1 -454 -428 0
1 454 -436 0
1 454 425 0
1 -454 -448 0
1 -510 -439 0
1 510 423 0
1 510 -456 0
1 -425 437 0
1 -425 516 0
1 -425 517 0
1 425 518 0
1 425 -456 0
1 428 439 0
1 -428 420 0
1 -428 -519 0
1 -428 -454 0
1 -428 -516 0
1 428 515 0
1 511 -520 0
1 511 512 0
1 -511 -521 0
1 -511 -435 0
1 511 -421 0
1 511 522 0
1 456 -438 0
1 456 -523 0
1 -456 436 0
1 -456 -442 0
1 -456 -444 0
1 456 -524 0
1 523 440 0
1 -523 -436 0
1 -523 -525 0
1 523 456 0
1 -523 438 0
1 523 524 0
1 -517 510 0
1 -517 -364 0
1 -517 -438 0
1 -459 447 0
1 -459 -365 0
1 459 510 0
1 459 525 0
1 -459 -526 0
1 -459 -438 0
1 459 -524 0
1 525 527 0
1 524 528 0
1 524 523 0
1 524 -468 0
1 -524 -456 0
1 436 528 0
1 -436 -529 0
1 -436 459 0
1 436 -530 0
1 -436 531 0
1 -436 -448 0
1 -438 -531 0
1 -438 456 0
1 438 448 0
1 455 525 0
1 -455 -441 0
1 -455 516 0
1 464 445 0
1 464 441 0
1 -464 455 0
1 -464 -352 0
1 -468 463 0
1 -468 -457 0
1 -468 525 0
1 -468 -526 0
1 468 532 0
1 -468 -531 0
1 468 533 0
1 468 -524 0
1 463 -534 0
1 -463 525 0
1 463 526 0
1 -463 -533 0
1 -535 473 0
1 -535 -536 0
1 -535 455 0
1 -535 -537 0
1 -445 462 0
1 445 538 0
1 445 464 0
1 -445 459 0
1 445 -535 0
1 -445 -517 0
1 526 447 0
1 526 539 0
1 447 -540 0
1 -447 -459 0
1 -447 526 0
1 447 -517 0
1 447 -446 0
1 -461 462 0
1 -461 -445 0
1 -461 371 0
1 -461 535 0
1 -462 452 0
1 462 358 0
1 462 535 0
1 462 -532 0
1 -462 352 0
1 -474 -473 0
1 474 -541 0
1 474 -381 0
1 474 539 0
1 -474 535 0
1 474 532 0
1 -474 -533 0
1 -474 542 0
1 -473 -543 0
1 -473 -544 0
1 533 -473 0
1 533 463 0
1 -533 474 0
1 -533 461 0
1 -534 450 0
1 -534 545 0
1 534 546 0
1 534 -468 0
1 534 -547 0
1 534 471 0
1 -532 -462 0
1 -532 541 0
1 532 -461 0
1 -541 -473 0
1 541 -440 0
1 -541 463 0
1 -541 -546 0
1 541 474 0
1 476 534 0
1 476 379 0
1 476 -366 0
1 -476 460 0
1 476 542 0
1 476 471 0
1 471 -534 0
1 481 466 0
1 -481 390 0
1 -481 -472 0
1 481 465 0
1 489 -466 0
1 489 -543 0
1 489 465 0
1 489 486 0
1 542 548 0
1 -542 491 0
1 -542 481 0
1 -542 -476 0
1 -542 474 0
1 -542 453 0
1 542 549 0
1 542 -492 0
1 -542 479 0
1 542 489 0
1 -542 471 0
1 544 491 0
1 544 -474 0
1 -544 542 0
1 465 548 0
1 -465 -550 0
1 -465 -546 0
1 -465 474 0
1 543 476 0
1 -543 474 0
1 543 -547 0
1 -478 -469 0
1 -478 -544 0
1 -478 -361 0
1 -478 -479 0
1 478 -542 0
1 479 470 0
1 -479 -484 0
1 479 -475 0
1 479 -366 0
1 479 361 0
1 479 388 0
1 -479 547 0
1 491 -551 0
1 491 477 0
1 491 -552 0
1 492 -491 0
1 492 552 0
1 492 485 0
1 492 397 0
1 492 -542 0
1 -492 -553 0
1 470 -500 0
1 -470 491 0
1 470 479 0
1 472 491 0
1 472 492 0
1 -472 489 0
1 553 -491 0
1 553 -549 0
1 553 479 0
1 -475 554 0
1 -475 548 0
1 475 481 0
1 475 492 0
1 475 -479 0
1 493 495 0
1 -493 480 0
1 493 -490 0
1 -493 -483 0
1 490 493 0
1 490 472 0
1 -490 485 0
1 -490 -549 0
1 -490 -483 0
1 -500 -470 0
1 -500 551 0
1 500 -554 0
1 -500 495 0
1 500 -552 0
1 -501 477 0
1 501 -495 0
1 501 552 0
1 -477 -480 0
1 -480 501 0
1 551 -493 0
1 551 552 0
1 552 493 0
1 -552 -491 0
1 552 501 0
1 -515 555 0
1 515 -508 0
1 515 428 0
1 515 512 0
1 -515 -419 0
1 -515 -513 0
1 515 511 0
1 -512 -507 0
1 -512 -428 0
1 -512 523 0
1 -512 556 0
1 -512 -419 0
1 512 513 0
1 -522 555 0
1 522 -509 0
1 -522 556 0
1 -520 -555 0
1 520 -459 0
1 520 556 0
1 -508 -413 0
1 -508 -531 0
1 556 -508 0
1 556 557 0
1 556 -515 0
1 -555 -558 0
1 509 -504 0
1 509 -515 0
1 -516 559 0
1 -516 514 0
1 560 -464 0
1 -560 428 0
1 560 -556 0
1 -560 -516 0
1 -560 -425 0
1 531 -508 0
1 -531 561 0
1 531 562 0
1 531 521 0
1 531 -438 0
1 -529 -463 0
1 529 563 0
1 -529 -556 0
1 529 -562 0
1 529 -518 0
1 -561 514 0
1 561 516 0
1 561 -522 0
1 514 564 0
1 514 520 0
1 514 531 0
1 514 -516 0
1 -559 -506 0
1 559 -522 0
1 562 560 0
1 562 419 0
1 562 -531 0
1 -562 522 0
1 -527 519 0
1 527 525 0
1 -528 -561 0
1 -528 526 0
1 -528 438 0
1 -539 -561 0
1 -539 474 0
1 -539 -526 0
1 539 518 0
1 -539 -565 0
1 564 473 0
1 -564 -530 0
1 564 521 0
1 564 518 0
1 563 -564 0
1 563 528 0
1 -563 566 0
1 563 -567 0
1 -563 -531 0
1 518 528 0
1 518 529 0
1 518 -567 0
1 518 -539 0
1 -518 425 0
1 519 -428 0
1 -519 568 0
1 519 -566 0
1 -519 569 0
1 519 570 0
1 521 -519 0
1 -521 566 0
1 521 571 0
1 -572 541 0
1 572 -563 0
1 -572 -573 0
1 -537 -541 0
1 537 -572 0
1 537 -574 0
1 537 -532 0
1 -537 -471 0
1 567 -540 0
1 567 -481 0
1 -567 575 0
1 -567 576 0
1 576 -540 0
1 -576 565 0
1 576 563 0
1 576 567 0
1 -576 -573 0
1 574 577 0
1 -574 546 0
1 574 -578 0
1 574 -547 0
1 574 -576 0
1 -573 -550 0
1 573 546 0
1 -573 567 0
1 573 -572 0
1 573 -578 0
1 -573 -547 0
1 -530 565 0
1 565 438 0
1 565 -567 0
1 565 572 0
1 565 -539 0
1 565 576 0
1 546 -579 0
1 546 536 0
1 -546 532 0
1 -547 540 0
1 547 543 0
1 547 579 0
1 -547 532 0
1 547 479 0
1 547 -465 0
1 -547 580 0
1 -550 -545 0
1 550 -581 0
1 550 465 0
1 582 -540 0
1 582 -583 0
1 -536 538 0
1 536 554 0
1 -536 535 0
1 -538 445 0
1 -538 -548 0
1 579 -540 0
1 579 -546 0
1 579 567 0
1 579 526 0
1 579 578 0
1 -579 -582 0
1 -540 -550 0
1 -540 -584 0
1 540 578 0
1 540 -576 0
1 -548 538 0
1 -548 585 0
1 548 -493 0
1 -548 -475 0
1 -548 -465 0
1 548 553 0
1 -549 -548 0
1 -549 544 0
1 -549 -475 0
1 -549 581 0
1 549 578 0
1 549 -586 0
1 -549 465 0
1 554 538 0
1 -554 -587 0
1 554 -553 0
1 -588 545 0
1 -588 -501 0
1 -545 549 0
1 545 -582 0
1 -581 -550 0
1 -585 550 0
1 -585 549 0
1 589 558 0
1 -589 590 0
1 -589 -559 0
1 589 -521 0
1 589 -570 0
1 570 -559 0
1 -570 -591 0
1 -570 562 0
1 -570 -537 0
1 -575 -519 0
1 569 -592 0
1 569 593 0
1 590 -508 0
1 -590 -566 0
1 -590 575 0
1 590 -583 0
1 -590 -569 0
1 590 -570 0
1 -557 -590 0
1 -557 -594 0
1 -557 566 0
1 557 -583 0
1 -558 570 0
1 -591 589 0
1 591 -509 0
1 -566 -546 0
1 580 -519 0
1 -580 -563 0
1 580 530 0
1 580 557 0
1 580 -518 0
1 580 547 0
1 -580 -565 0
1 -594 590 0
1 594 592 0
1 -594 593 0
1 594 -595 0
1 594 -596 0
1 -583 -594 0
1 583 -595 0
1 -583 -530 0
1 -583 557 0
1 583 -597 0
1 593 -587 0
1 -593 594 0
1 593 -597 0
1 593 -566 0
1 -593 -575 0
1 -593 -578 0
1 -593 -583 0
1 593 -569 0
1 597 594 0
1 -597 575 0
1 -597 580 0
1 -592 566 0
1 -592 -580 0
1 -598 594 0
1 -577 568 0
1 577 597 0
1 -577 595 0
1 -577 530 0
1 -577 579 0
1 577 -596 0
1 -577 573 0
1 -578 568 0
1 578 -549 0
1 578 -571 0
1 578 -596 0
1 587 568 0
1 587 595 0
1 587 -584 0
1 -587 -571 0
1 -584 -568 0
1 584 -595 0
1 -584 -579 0
1 584 571 0
1 596 578 0
1 568 -587 0
1 568 594 0
1 -571 -594 0
1 -571 584 0
1 571 -583 0
